c FILE: instance4.col
c DESCRIPTION: A highly connected undirected graph
p edge 10 20
e 1 2
e 1 3
e 1 4
e 1 5
e 2 3
e 2 4
e 2 6
e 3 4
e 3 5
e 3 7
e 4 5
e 4 6
e 4 8
e 5 7
e 5 8
e 5 9
e 6 8
e 6 10
e 7 9
e 8 9
e 9 10
